certificates/rado_a11_c37_N34.cnf
c Rad2 upper bound instance: x1 + 11*x2 - x3 = 37, interval [1,34]
p cnf 34 208
1 4 8 0
-1 -4 -8 0
1 5 19 0
-1 -5 -19 0
1 6 30 0
-1 -6 -30 0
2 4 9 0
-2 -4 -9 0
2 5 20 0
-2 -5 -20 0
2 6 31 0
-2 -6 -31 0
3 4 10 0
-3 -4 -10 0
3 5 21 0
-3 -5 -21 0
3 6 32 0
-3 -6 -32 0
4 11 0
-4 -11 0
4 5 22 0
-4 -5 -22 0
4 6 33 0
-4 -6 -33 0
1 3 5 0
-1 -3 -5 0
4 5 12 0
-4 -5 -12 0
5 23 0
-5 -23 0
5 6 34 0
-5 -6 -34 0
2 3 6 0
-2 -3 -6 0
4 6 13 0
-4 -6 -13 0
5 6 24 0
-5 -6 -24 0
3 7 0
-3 -7 0
4 7 14 0
-4 -7 -14 0
5 7 25 0
-5 -7 -25 0
3 4 8 0
-3 -4 -8 0
4 8 15 0
-4 -8 -15 0
5 8 26 0
-5 -8 -26 0
3 5 9 0
-3 -5 -9 0
4 9 16 0
-4 -9 -16 0
5 9 27 0
-5 -9 -27 0
3 6 10 0
-3 -6 -10 0
4 10 17 0
-4 -10 -17 0
5 10 28 0
-5 -10 -28 0
3 7 11 0
-3 -7 -11 0
4 11 18 0
-4 -11 -18 0
5 11 29 0
-5 -11 -29 0
3 8 12 0
-3 -8 -12 0
4 12 19 0
-4 -12 -19 0
5 12 30 0
-5 -12 -30 0
3 9 13 0
-3 -9 -13 0
4 13 20 0
-4 -13 -20 0
5 13 31 0
-5 -13 -31 0
3 10 14 0
-3 -10 -14 0
4 14 21 0
-4 -14 -21 0
5 14 32 0
-5 -14 -32 0
3 11 15 0
-3 -11 -15 0
4 15 22 0
-4 -15 -22 0
5 15 33 0
-5 -15 -33 0
1 2 16 0
-1 -2 -16 0
3 12 16 0
-3 -12 -16 0
4 16 23 0
-4 -16 -23 0
5 16 34 0
-5 -16 -34 0
2 17 0
-2 -17 0
3 13 17 0
-3 -13 -17 0
4 17 24 0
-4 -17 -24 0
2 3 18 0
-2 -3 -18 0
3 14 18 0
-3 -14 -18 0
4 18 25 0
-4 -18 -25 0
2 4 19 0
-2 -4 -19 0
3 15 19 0
-3 -15 -19 0
4 19 26 0
-4 -19 -26 0
3 16 20 0
-3 -16 -20 0
4 20 27 0
-4 -20 -27 0
2 6 21 0
-2 -6 -21 0
3 17 21 0
-3 -17 -21 0
4 21 28 0
-4 -21 -28 0
2 7 22 0
-2 -7 -22 0
3 18 22 0
-3 -18 -22 0
4 22 29 0
-4 -22 -29 0
2 8 23 0
-2 -8 -23 0
3 19 23 0
-3 -19 -23 0
4 23 30 0
-4 -23 -30 0
2 9 24 0
-2 -9 -24 0
3 20 24 0
-3 -20 -24 0
4 24 31 0
-4 -24 -31 0
2 10 25 0
-2 -10 -25 0
3 21 25 0
-3 -21 -25 0
4 25 32 0
-4 -25 -32 0
2 11 26 0
-2 -11 -26 0
3 22 26 0
-3 -22 -26 0
4 26 33 0
-4 -26 -33 0
1 27 0
-1 -27 0
2 12 27 0
-2 -12 -27 0
3 23 27 0
-3 -23 -27 0
4 27 34 0
-4 -27 -34 0
1 2 28 0
-1 -2 -28 0
2 13 28 0
-2 -13 -28 0
3 24 28 0
-3 -24 -28 0
1 3 29 0
-1 -3 -29 0
2 14 29 0
-2 -14 -29 0
3 25 29 0
-3 -25 -29 0
1 4 30 0
-1 -4 -30 0
2 15 30 0
-2 -15 -30 0
3 26 30 0
-3 -26 -30 0
1 5 31 0
-1 -5 -31 0
2 16 31 0
-2 -16 -31 0
3 27 31 0
-3 -27 -31 0
1 6 32 0
-1 -6 -32 0
2 17 32 0
-2 -17 -32 0
3 28 32 0
-3 -28 -32 0
1 7 33 0
-1 -7 -33 0
2 18 33 0
-2 -18 -33 0
3 29 33 0
-3 -29 -33 0
1 8 34 0
-1 -8 -34 0
2 19 34 0
-2 -19 -34 0
3 30 34 0
-3 -30 -34 0
