certificates/rado_a11_c37_N34.drat
3 -33 -34 0
5 28 29 -3 0
-32 30 29 -3 0
-5 -33 -34 0
-33 -34 0
d 3 -33 -34 0
-3 5 33 0
5 -34 0
-34 0
-3 -5 33 0
-5 33 0
d -3 -5 33 0
33 0
5 0
-23 0
-15 0
3 0
-7 0
-29 0
-21 0
-9 0
-1 0
27 0
8 0
-31 0
-26 0
-12 0
-4 0
24 0
19 0
11 0
16 0
22 0
30 0
14 0
28 0
2 0
0
